p cnf 110 378
-3 -1 0
-3 2 0
1 -2 3 0
-3 -2 -4 0
3 2 -4 0
-3 2 4 0
3 -2 4 0
-8 6 0
-8 -7 0
-6 7 8 0
9 -5 0
9 8 0
5 -8 -9 0
-11 -10 -12 0
11 10 -12 0
-11 10 12 0
11 -10 12 0
12 -13 -14 0
-12 13 -14 0
12 13 14 0
-12 -13 14 0
-15 -10 0
-15 -14 0
10 14 15 0
16 2 0
16 -13 0
-2 13 -16 0
-17 -15 0
-17 -16 0
15 16 17 0
18 9 0
18 -17 0
-9 17 -18 0
-19 -4 0
-19 -18 0
4 18 19 0
13 -20 0
-13 -20 0
-21 1 0
-21 20 0
-1 -20 21 0
-22 12 0
-22 8 0
-12 -8 22 0
23 -21 0
23 22 0
21 -22 -23 0
24 5 0
24 -5 0
25 -1 0
25 -13 0
1 13 -25 0
-26 24 0
-26 25 0
-24 -25 26 0
27 2 0
27 26 0
-2 -26 -27 0
5 1 -28 0
-5 -1 -28 0
5 -1 28 0
-5 1 28 0
-29 -5 0
-29 -28 0
5 28 29 0
-29 30 -31 0
29 -30 -31 0
-29 -30 31 0
29 30 31 0
32 -27 0
32 -31 0
27 31 -32 0
-33 -16 -34 0
33 16 -34 0
-33 16 34 0
33 -16 34 0
35 22 0
35 34 0
-22 -34 -35 0
-33 35 -36 0
33 -35 -36 0
-33 -35 36 0
33 35 36 0
32 -36 -37 0
-32 36 -37 0
32 36 37 0
-32 -36 37 0
38 23 0
38 37 0
-23 -37 -38 0
14 -12 -39 0
-14 12 -39 0
14 12 39 0
-14 -12 39 0
-40 39 0
-40 -31 0
-39 31 40 0
42 -13 0
42 41 0
13 -41 -42 0
43 40 0
43 -42 0
-40 42 -43 0
-44 -35 0
-44 28 0
35 -28 44 0
29 44 -45 0
-29 -44 -45 0
29 -44 45 0
-29 44 45 0
46 -43 0
46 45 0
43 -45 -46 0
-47 38 0
-47 -46 0
-38 46 47 0
14 -16 -48 0
-14 16 -48 0
14 16 48 0
-14 -16 48 0
48 -1 -49 0
-48 1 -49 0
48 1 49 0
-48 -1 49 0
41 49 -50 0
-41 -49 -50 0
41 -49 50 0
-41 49 50 0
51 1 0
51 16 0
-1 -16 -51 0
50 51 -52 0
-50 -51 -52 0
50 -51 52 0
-50 51 52 0
53 52 0
53 26 0
-52 -26 -53 0
54 16 0
54 -31 0
-16 31 -54 0
56 28 0
56 -55 0
-28 55 -56 0
-57 54 0
-57 56 0
-54 -56 57 0
53 57 -58 0
-53 -57 -58 0
53 -57 58 0
-53 57 58 0
13 -25 -59 0
-13 25 -59 0
13 25 59 0
-13 -25 59 0
-60 59 0
-60 -5 0
-59 5 60 0
11 22 -61 0
-11 -22 -61 0
11 -22 61 0
-11 22 61 0
62 -60 0
62 61 0
60 -61 -62 0
63 58 0
63 62 0
-58 -62 -63 0
64 -52 0
64 -28 0
52 28 -64 0
65 11 0
65 -7 0
-11 7 -65 0
-65 -20 -66 0
65 20 -66 0
-65 20 66 0
65 -20 66 0
66 -35 -67 0
-66 35 -67 0
66 35 67 0
-66 -35 67 0
68 -64 0
68 -67 0
64 67 -68 0
69 -33 0
69 21 0
33 -21 -69 0
10 21 -70 0
-10 -21 -70 0
10 -21 70 0
-10 21 70 0
71 29 0
71 59 0
-29 -59 -71 0
72 -70 0
72 -71 0
70 71 -72 0
-73 -69 0
-73 72 0
69 -72 73 0
50 -39 -74 0
-50 39 -74 0
50 39 74 0
-50 -39 74 0
-75 14 0
-75 31 0
-14 -31 75 0
-76 -3 0
-76 75 0
3 -75 76 0
77 74 0
77 76 0
-74 -76 -77 0
78 -73 0
78 -77 0
73 77 -78 0
-79 -68 0
-79 78 0
68 -78 79 0
49 -24 -80 0
-49 24 -80 0
49 24 80 0
-49 -24 80 0
-81 -12 0
-81 -5 0
12 5 81 0
82 -80 0
82 -81 0
80 81 -82 0
-52 82 -83 0
52 -82 -83 0
-52 -82 83 0
52 82 83 0
-85 83 0
-85 -84 0
-83 84 85 0
-79 -85 -86 0
79 85 -86 0
-79 85 86 0
79 -85 86 0
87 15 0
87 -25 0
-15 25 -87 0
88 27 0
88 49 0
-27 -49 -88 0
89 -20 0
89 -36 0
20 36 -89 0
90 -88 0
90 89 0
88 -89 -90 0
91 25 0
91 -49 0
-25 49 -91 0
92 51 0
92 -91 0
-51 91 -92 0
93 -90 0
93 92 0
90 -92 -93 0
-87 93 -94 0
87 -93 -94 0
-87 -93 94 0
87 93 94 0
-96 95 0
-96 -30 0
-95 30 96 0
-97 96 0
-97 -55 0
-96 55 97 0
98 97 0
98 -8 0
-97 8 -98 0
99 35 0
99 -8 0
-35 8 -99 0
-100 -1 0
-100 -22 0
1 22 100 0
-101 99 0
-101 100 0
-99 -100 101 0
102 -39 0
102 49 0
39 -49 -102 0
13 -102 -103 0
-13 102 -103 0
13 102 103 0
-13 -102 103 0
104 101 0
104 -103 0
-101 103 -104 0
-105 -98 0
-105 -104 0
98 104 105 0
-106 -94 0
-106 105 0
94 -105 106 0
-86 -106 -107 0
86 106 -107 0
-86 106 107 0
86 -106 107 0
-108 -63 0
-108 -107 0
63 107 108 0
47 108 -109 0
-47 -108 -109 0
47 -108 109 0
-47 108 109 0
110 -19 0
110 -109 0
19 109 -110 0
-54 4 -84 90 100 0
69 64 0
-42 28 -37 0
-84 -85 0
-65 49 41 -76 -50 16 0
-10 -75 -71 30 53 -106 0
-99 103 0
49 -17 -20 11 -2 0
95 -1 -100 -103 0
-33 -28 -63 0
-91 -97 79 5 0
-43 105 27 93 91 16 0
-22 -47 0
-46 -2 0
45 -21 -67 106 -75 0
67 -33 0
-86 -23 0
108 -35 -9 53 -12 0
14 -24 -93 0
85 59 29 0
-3 64 -66 0
10 32 107 0
24 84 -27 0
-104 84 -34 -102 0
-24 -10 0
61 65 -20 -32 -106 71 0
-65 88 12 3 10 -21 0
29 24 -32 9 -2 103 0
44 58 26 -52 0
-61 49 0
105 27 7 -47 0
-78 -29 58 0
5 65 6 -109 0
-110 36 -82 33 0
-54 15 0
-75 -1 105 19 -42 70 0
-50 90 0
-26 -51 -103 -14 29 0
-38 -78 -47 -14 0
-108 34 -57 0
36 -95 -41 0
75 -4 34 -82 -3 0
38 -65 18 109 0
22 -6 95 -77 86 0
-108 -40 0
-108 23 20 94 0
65 19 -70 0
51 -46 -30 0
-16 31 -28 -99 -10 0
67 109 20 -71 0
-64 50 -75 15 -70 73 0
12 103 -106 -63 -83 0
-17 -1 0
21 12 10 0
105 -45 -60 0
83 -54 -39 -52 -67 0
-83 47 66 -45 -16 0
19 34 0
64 -93 0
-104 -65 -103 -101 21 0
-92 12 105 46 0
110 -51 32 71 -67 0
90 30 -72 -100 -64 -99 0
110 0
